
--- Job RCPSP_Modell.gms Start 03/15/14 23:48:49 24.1.3 r41464 WEX-WEI x86_64/MS Windows
GAMS 24.1.3   Copyright (C) 1987-2013 GAMS Development. All rights reserved
Licensee: Kurslizenz                                     S130222/0001AN-GEN
          Leibniz University Hannover, Lehrstuhl fuer ProduktionswirtDC6657
          License for teaching and research at degree granting institutions
--- Starting compilation
--- RCPSP_Modell.gms(27) 2 Mb
--- .inputfile.inc(85) 3 Mb
--- RCPSP_Modell.gms(103) 3 Mb
--- Starting execution: elapsed 0:00:00.004
--- RCPSP_Modell.gms(163) 4 Mb
--- Generating MIP model RCPSP
--- RCPSP_Modell.gms(165) 4 Mb
---   95 rows  530 columns  3,086 non-zeroes
---   529 discrete-columns
--- Executing CPLEX: elapsed 0:00:00.029

IBM ILOG CPLEX   24.1.3 r41464 Released Jul 26, 2013 WEI x86_64/MS Windows    
--- GAMS/Cplex licensed for continuous and discrete problems.
Cplex 12.5.1.0

Reading data...
Starting Cplex...
Tried aggregator 1 time.
MIP Presolve eliminated 26 rows and 405 columns.
MIP Presolve modified 1241 coefficients.
Reduced MIP has 59 rows, 125 columns, and 761 nonzeros.
Reduced MIP has 125 binaries, 0 generals, 0 SOSs, and 0 indicators.
Presolve time = 0.01 sec. (2.77 ticks)
Found incumbent of value 48.000000 after 0.01 sec. (3.60 ticks)
Probing fixed 6 vars, tightened 0 bounds.
Probing time = 0.00 sec. (0.71 ticks)
Tried aggregator 1 time.
MIP Presolve eliminated 5 rows and 15 columns.
MIP Presolve modified 23 coefficients.
Reduced MIP has 54 rows, 110 columns, and 685 nonzeros.
Reduced MIP has 110 binaries, 0 generals, 0 SOSs, and 0 indicators.
Presolve time = 0.00 sec. (0.69 ticks)
Probing time = 0.00 sec. (0.59 ticks)
Tried aggregator 1 time.
MIP Presolve eliminated 5 rows and 8 columns.
Reduced MIP has 49 rows, 102 columns, and 619 nonzeros.
Reduced MIP has 102 binaries, 0 generals, 0 SOSs, and 0 indicators.
Presolve time = 0.05 sec. (0.42 ticks)
Probing time = 0.00 sec. (0.54 ticks)
Clique table members: 153.
MIP emphasis: balance optimality and feasibility.
MIP search method: dynamic search.
Parallel mode: none, using 1 thread.
Tried aggregator 1 time.
No LP presolve or aggregator reductions.
Presolve time = 0.00 sec. (0.05 ticks)
Initializing dual steep norms . . .

Iteration log . . .
Iteration:     1   Dual objective     =            43.000000
Iteration:    62   Dual objective     =            43.000000
Root relaxation solution time = 0.00 sec. (0.49 ticks)

        Nodes                                         Cuts/
   Node  Left     Objective  IInf  Best Integer    Best Bound    ItCnt     Gap

*     0+    0                           48.0000        0.0000       81  100.00%
Found incumbent of value 48.000000 after 0.08 sec. (7.58 ticks)
      0     0       43.6154    14       48.0000       43.6154       81    9.13%

Root node processing (before b&c):
  Real time             =    0.08 sec. (7.61 ticks)
Sequential b&c:
  Real time             =    0.00 sec. (0.00 ticks)
                          ------------
Total (root+branch&cut) =    0.08 sec. (7.61 ticks)
MIP status(102): integer optimal, tolerance
Cplex Time: 0.08sec (det. 7.61 ticks)
Fixing integer variables, and solving final LP...
Tried aggregator 1 time.
LP Presolve eliminated 95 rows and 530 columns.
All rows and columns eliminated.
Presolve time = 0.00 sec. (0.19 ticks)
Fixed MIP status(1): optimal
Cplex Time: 0.00sec (det. 0.31 ticks)

Solution satisfies tolerances.

MIP Solution:           48.000000    (81 iterations, 0 nodes)
Final Solve:            48.000000    (0 iterations)

Best possible:          43.615385
Absolute gap:            4.384615
Relative gap:            0.091346

--- Restarting execution
--- RCPSP_Modell.gms(165) 2 Mb
--- Reading solution for model RCPSP
--- Executing after solve: elapsed 0:00:00.218
--- RCPSP_Modell.gms(187) 3 Mb
--- Putfile Outputfile C:\Sites\RCPSP_App\Outputfile.txt
*** Status: Normal completion
--- Job RCPSP_Modell.gms Stop 03/15/14 23:48:49 elapsed 0:00:00.219
